SCIP version 5.0.0 [precision: 8 byte] [memory: block] [mode: optimized] [LP solver: NONE] [GitHash: 3bbd232]
Copyright (C) 2002-2017 Konrad-Zuse-Zentrum fuer Informationstechnik Berlin (ZIB)

External codes: 
  Readline EditLine w  GNU library for command line editing (gnu.org/s/readline)
  CppAD 20160000.1     Algorithmic Differentiation of C++ algorithms developed by B. Bell (www.coin-or.org/CppAD)
  ZLIB 1.2.5           General purpose compression library by J. Gailly and M. Adler (zlib.net)
  GMP 6.1.2            GNU Multiple Precision Arithmetic Library developed by T. Granlund (gmplib.org)

user parameter file <scip.set> not found - using default parameters

read problem <../../Split_data/output/breast/6/3_sample_breast.logreg>
============

File name	:	../../Split_data/output/breast/6/3_sample_breast.logreg
Problem name 	:	3_sample_breast
Number of data	:	155
Number of var	:	33
The given data has linear independence

[dim=1] time: 0.003879
[dim=2] time: 0.008056
[dim=3] time: 0.012226
[dim=4] time: 0.016136
[dim=5] time: 0.019908
[dim=6] time: 0.02379
[dim=7] time: 0.027461
[dim=8] time: 0.031153
[dim=9] time: 0.035016
[dim=10] Time of forward = 0.038619sec.
AIC: 127.973
k: 9

[dim=33] time: 0.011549
[dim=32] time: 0.02415
[dim=31] time: 0.035621
[dim=30] time: 0.044352
[dim=29] time: 0.054251
[dim=28] time: 0.063016
[dim=27] time: 0.071364
[dim=26] time: 0.078502
[dim=25] time: 0.08562
[dim=24] time: 0.094261
[dim=23] time: 0.103022
[dim=22] time: 0.109089
[dim=21] time: 0.113224
[dim=20] Time of backward = 0.117324sec.
AIC: 113.029
k: 21
